c File: instances/36_0.40_3.col
c
c Description: Random graph of size 36 vertices and P(0.39999999999999997) of edges between any two vertices.
p col 36 630
e 1 5
e 1 9
e 1 11
e 1 12
e 1 18
e 1 19
e 1 20
e 1 21
e 1 22
e 1 26
e 1 30
e 1 31
e 1 34
e 1 36
e 2 3
e 2 8
e 2 10
e 2 12
e 2 14
e 2 16
e 2 17
e 2 18
e 2 19
e 2 20
e 2 22
e 2 23
e 2 25
e 2 30
e 2 33
e 2 36
e 3 5
e 3 6
e 3 7
e 3 8
e 3 10
e 3 12
e 3 14
e 3 16
e 3 20
e 3 24
e 3 26
e 3 29
e 3 32
e 3 34
e 3 35
e 4 6
e 4 7
e 4 8
e 4 9
e 4 10
e 4 13
e 4 18
e 4 19
e 4 23
e 4 27
e 4 28
e 4 29
e 4 30
e 4 32
e 4 34
e 4 35
e 4 36
e 5 6
e 5 17
e 5 21
e 5 23
e 5 24
e 5 25
e 5 26
e 5 27
e 5 31
e 5 32
e 5 33
e 5 34
e 5 35
e 5 36
e 6 12
e 6 15
e 6 16
e 6 17
e 6 21
e 6 23
e 6 26
e 6 31
e 7 8
e 7 11
e 7 12
e 7 15
e 7 16
e 7 17
e 7 18
e 7 19
e 7 20
e 7 22
e 7 29
e 7 32
e 7 33
e 8 10
e 8 11
e 8 15
e 8 16
e 8 19
e 8 21
e 8 23
e 8 24
e 8 27
e 8 30
e 8 32
e 8 33
e 8 35
e 9 10
e 9 15
e 9 20
e 9 22
e 9 23
e 9 25
e 9 33
e 10 11
e 10 13
e 10 14
e 10 17
e 10 21
e 10 22
e 10 23
e 10 25
e 10 27
e 10 28
e 10 29
e 10 35
e 10 36
e 11 18
e 11 19
e 11 26
e 11 27
e 11 29
e 11 30
e 11 31
e 11 32
e 11 36
e 12 13
e 12 16
e 12 20
e 12 26
e 12 29
e 12 30
e 12 32
e 12 34
e 12 35
e 12 36
e 13 18
e 13 19
e 13 21
e 13 22
e 13 28
e 13 29
e 13 31
e 13 33
e 13 34
e 13 35
e 14 19
e 14 20
e 14 21
e 14 22
e 14 24
e 14 25
e 14 31
e 14 34
e 14 35
e 14 36
e 15 16
e 15 17
e 15 18
e 15 22
e 15 24
e 15 25
e 15 28
e 15 33
e 16 23
e 16 28
e 16 33
e 16 34
e 16 35
e 17 21
e 17 26
e 17 28
e 17 29
e 17 30
e 17 31
e 17 35
e 18 20
e 18 31
e 18 33
e 18 35
e 19 20
e 19 21
e 19 23
e 19 27
e 19 28
e 19 29
e 19 30
e 19 32
e 19 33
e 19 36
e 20 22
e 20 27
e 20 29
e 20 30
e 20 31
e 21 25
e 21 26
e 21 28
e 21 32
e 21 34
e 21 35
e 21 36
e 22 24
e 22 25
e 22 28
e 22 30
e 22 35
e 22 36
e 23 26
e 23 28
e 23 30
e 23 31
e 23 33
e 24 25
e 24 26
e 24 28
e 24 29
e 24 36
e 25 28
e 25 32
e 25 34
e 25 35
e 25 36
e 26 28
e 26 30
e 26 31
e 26 32
e 26 35
e 27 28
e 27 29
e 27 30
e 27 32
e 27 33
e 27 36
e 28 29
e 28 30
e 28 31
e 28 35
e 28 36
e 29 30
e 29 31
e 29 32
e 29 34
e 29 35
e 31 34
e 32 33
e 32 34
e 33 34
e 34 35
e 34 36